
******************************************************************************
This program contains Ipopt, a library for large-scale nonlinear optimization.
 Ipopt is released as open source code under the Eclipse Public License (EPL).
         For more information visit http://projects.coin-or.org/Ipopt

This version of Ipopt was compiled from source code available at
    https://github.com/IDAES/Ipopt as part of the Institute for the Design of
    Advanced Energy Systems Process Systems Engineering Framework (IDAES PSE
    Framework) Copyright (c) 2018-2019. See https://github.com/IDAES/idaes-pse.

This version of Ipopt was compiled using HSL, a collection of Fortran codes
    for large-scale scientific computation.  All technical papers, sales and
    publicity material resulting from use of the HSL codes within IPOPT must
    contain the following acknowledgement:
        HSL, a collection of Fortran codes for large-scale scientific
        computation. See http://www.hsl.rl.ac.uk.
******************************************************************************

This is Ipopt version 3.13.2, running with linear solver ma27.

Number of nonzeros in equality constraint Jacobian...:     1020
Number of nonzeros in inequality constraint Jacobian.:        0
Number of nonzeros in Lagrangian Hessian.............:     1161

Total number of variables............................:      405
                     variables with only lower bounds:      108
                variables with lower and upper bounds:      243
                     variables with only upper bounds:        0
Total number of equality constraints.................:      402
Total number of inequality constraints...............:        0
        inequality constraints with only lower bounds:        0
   inequality constraints with lower and upper bounds:        0
        inequality constraints with only upper bounds:        0

iter    objective    inf_pr   inf_du lg(mu)  ||d||  lg(rg) alpha_du alpha_pr  ls
   0  0.0000000e+00 4.53e-01 2.71e-14  -1.0 0.00e+00    -  0.00e+00 0.00e+00   0
   1  3.0470274e+01 3.54e-01 2.03e+06  -1.0 2.24e+06    -  2.02e-01 2.12e-01h  2
   2  2.1279428e+01 3.49e-01 1.94e+06  -1.0 2.15e+07    -  8.06e-02 1.53e-02f  3
   3  3.0205263e+01 3.41e-01 3.32e+06  -1.0 1.37e+07    -  4.75e-02 1.70e-02h  4
   4  3.0405897e+01 3.40e-01 3.34e+06  -1.0 5.38e+06  -4.0 1.37e-01 7.12e-04h  9
   5  3.0497433e+01 3.40e-01 3.34e+06  -1.0 4.64e+06  -4.5 1.41e-01 3.73e-04h 10
   6  3.0509079e+01 3.40e-01 3.34e+06  -1.0 5.38e+06  -4.1 1.39e-01 9.53e-05h 12
   7  3.0510120e+01 3.40e-01 3.34e+06  -1.0 6.24e+06  -3.6 1.32e-01 4.11e-05h 13
   8  3.0427502e+01 3.40e-01 3.34e+06  -1.0 1.70e+08  -4.1 9.46e-03 7.33e-06f 11
   9  3.0135608e+01 3.40e-01 3.34e+06  -1.0 8.72e+06  -4.6 1.14e-01 9.40e-04f  8
iter    objective    inf_pr   inf_du lg(mu)  ||d||  lg(rg) alpha_du alpha_pr  ls
  10  3.1165306e+01 3.38e-01 3.27e+06  -1.0 4.42e+06  -5.1 1.54e-01 4.49e-03h  7
  11  3.0600640e+02 7.96e+01 4.07e+08  -1.0 1.92e+07  -5.5 5.87e-02 8.81e-02w  1
  12  2.8454832e+02 4.22e+00 4.00e+09  -1.0 8.73e+05  -3.3 2.75e-01 9.90e-01w  1
  13  5.4417551e+02 1.33e+01 6.18e+09  -1.0 4.07e+06  -3.8 2.22e-01 6.34e-01w  1
  14  4.6735329e+02 1.15e+00 1.73e+09  -1.0 5.49e+05  -3.4 2.70e-02 9.90e-01h  1
  15  4.5079958e+02 2.05e+00 1.27e+09  -1.0 9.51e+05  -3.8 5.15e-01 2.47e-01f  3
  16  4.3551119e+02 1.95e+00 1.21e+09  -1.0 1.26e+06  -4.3 6.69e-01 4.43e-02f  5
  17  4.1335261e+02 4.20e+00 1.02e+09  -1.0 5.11e+05  -3.9 6.78e-01 2.47e-01f  3
  18  3.6382843e+02 3.07e+00 8.94e+08  -1.0 1.50e+06  -4.4 7.16e-01 2.68e-01f  2
  19  3.6146399e+02 2.78e+00 8.19e+08  -1.0 6.24e+05  -3.9 7.97e-01 9.48e-02f  4
iter    objective    inf_pr   inf_du lg(mu)  ||d||  lg(rg) alpha_du alpha_pr  ls
  20  3.6038781e+02 2.75e+00 8.10e+08  -1.0 1.69e+06  -4.4 9.90e-01 1.08e-02f  6
  21  3.5743915e+02 2.07e+00 6.63e+08  -1.0 6.40e+05  -4.0 9.33e-01 2.47e-01f  3
  22  3.5611772e+02 1.99e+00 6.37e+08  -1.0 1.36e+06  -4.5 9.90e-01 4.09e-02f  5
  23  3.5132183e+02 1.49e+00 5.14e+08  -1.0 5.68e+05  -4.0 9.07e-01 2.47e-01f  3
  24  3.4584469e+02 3.72e+00 4.54e+08  -1.0 1.85e+06  -4.5 8.98e-01 1.72e-01f  2
  25  3.6929813e+02 4.16e+01 4.82e+08  -1.0 4.75e+05  -4.1 7.70e-01 9.90e-01w  1
  26  4.1628648e+02 1.31e+00 2.82e+08  -1.0 3.10e+05  -4.6 4.31e-01 9.90e-01h  1
  27  4.8375475e+02 1.09e+00 9.72e+09  -1.0 1.85e+06  -5.0 6.43e-01 2.47e-01h  3
  28  4.8295537e+02 3.56e-01 7.25e+08  -1.0 3.59e+05  -3.7 9.67e-01 9.90e-01h  1
  29  4.8843466e+02 6.59e-02 3.29e+10  -1.0 2.73e+05  -4.2 1.00e+00 9.90e-01h  1
In iteration 29, 27 Slacks too small, adjusting variable bounds
iter    objective    inf_pr   inf_du lg(mu)  ||d||  lg(rg) alpha_du alpha_pr  ls
  30  4.8841546e+02 3.14e-03 3.29e+12  -1.0 6.92e+04  -4.7 1.00e+00 9.90e-01h  1
  31  4.8833308e+02 5.50e-06 9.78e+02  -1.0 3.38e+03  -5.1 1.00e+00 1.00e+00h  1
  32  4.8830586e+02 2.64e-10 1.04e+07  -8.6 8.38e+01  -5.6 1.00e+00 1.00e+00f  1
  33  4.8863791e+01 6.80e-01 4.42e+05  -8.6 2.79e+06    -  9.58e-01 1.00e+00f  1
  34  4.8909022e+01 6.59e-01 1.50e+05  -8.6 1.58e+05  -6.1 6.61e-01 3.12e-02h  6
  35  4.8733528e+01 2.77e+00 7.00e+04  -8.6 1.49e+05  -6.6 7.29e-01 2.50e-01h  3
  36  3.4573633e+01 7.36e-02 7.61e+05  -8.6 1.02e+05  -6.1 9.33e-01 1.00e+00f  1
  37  4.0687932e+01 1.60e-01 1.53e+05  -8.6 3.94e+04  -5.7 1.00e+00 1.00e+00h  1
  38  4.1649322e+01 2.15e-03 1.26e+06  -8.6 2.94e+05  -6.2 1.00e+00 1.00e+00H  1
  39  4.1874025e+01 2.00e-05 5.04e+04  -8.6 7.40e+03  -5.8 1.00e+00 1.00e+00h  1
iter    objective    inf_pr   inf_du lg(mu)  ||d||  lg(rg) alpha_du alpha_pr  ls
  40  4.1869730e+01 1.22e-09 3.10e+01  -8.6 5.60e+01  -6.2 1.00e+00 1.00e+00h  1
  41  2.9795610e+01 2.78e+00 1.00e+03  -8.6 4.58e+05    -  1.00e+00 5.00e-01f  2
  42  2.7703552e+01 2.13e-02 1.64e+03  -8.6 5.91e+04  -6.7 1.00e+00 1.00e+00f  1
  43  2.7628883e+01 2.17e-04 4.38e+01  -8.6 6.70e+03  -7.2 1.00e+00 1.00e+00h  1
  44  2.4512715e+01 5.96e-03 2.23e+01  -8.6 1.19e+05    -  1.00e+00 1.00e+00f  1
  45  1.3427761e+01 8.52e+00 1.85e+02  -8.6 3.41e+06    -  1.69e-01 1.67e-01f  2
  46  1.4383642e+01 8.03e-03 1.30e+02  -8.6 6.43e+04  -7.7 1.00e+00 1.00e+00h  1
  47  1.3578098e+01 9.12e-03 1.19e+02  -8.6 5.79e+05    -  1.00e+00 1.25e-01f  4
  48  1.2410921e+01 3.13e-02 3.56e+01  -8.6 1.56e+05    -  1.00e+00 1.00e+00f  1
  49  4.1135243e+00 2.14e-02 1.52e+01  -8.6 2.66e+05    -  1.00e+00 1.00e+00f  1
iter    objective    inf_pr   inf_du lg(mu)  ||d||  lg(rg) alpha_du alpha_pr  ls
  50  2.7236787e+00 3.15e-02 9.94e-01  -8.6 1.13e+05    -  1.00e+00 1.00e+00f  1
  51  2.9861134e+00 1.04e-03 1.07e-01  -8.6 3.88e+04    -  1.00e+00 1.00e+00h  1
  52  3.0012831e+00 8.74e-07 3.25e-05  -8.6 5.72e+02    -  1.00e+00 1.00e+00h  1
  53  3.0012675e+00 3.44e-12 4.37e-11  -8.6 4.32e-01    -  1.00e+00 1.00e+00h  1

Number of Iterations....: 53

                                   (scaled)                 (unscaled)
Objective...............:   3.0012675021504371e+00    3.0012675021504371e+00
Dual infeasibility......:   4.3655745685100555e-11    4.3655745685100555e-11
Constraint violation....:   3.4416913763379853e-12    3.4416913763379853e-12
Complementarity.........:   2.5059035596801251e-09    2.5059035596801251e-09
Overall NLP error.......:   6.5812698126441080e-11    2.5059035596801251e-09


Number of objective function evaluations             = 199
Number of objective gradient evaluations             = 54
Number of equality constraint evaluations            = 199
Number of inequality constraint evaluations          = 0
Number of equality constraint Jacobian evaluations   = 54
Number of inequality constraint Jacobian evaluations = 0
Number of Lagrangian Hessian evaluations             = 53
Total CPU secs in IPOPT (w/o function evaluations)   =      0.113
Total CPU secs in NLP function evaluations           =      1.780

EXIT: Optimal Solution Found.
